nbObj= 100;
Capacity= 81;
Profit =[ 74,77,30,67,44,31,28,35,37,43,68,84,11,29,35,41,15,75,63,58,13,48,34,61,49,24,28,41,76,34,81,57,28,44,109,102,26,100,68,68,102,36,35,71,84,24,16,63,82,105,10,49,91,33,11,79,95,78,28,43,90,80,85,18,52,59,65,35,25,51,38,86,80,65,81,23,78,78,81,97,55,31,66,12,104,30,28,78,81,18,19,33,46,61,43,96,15,20,62,75];
Weight =[ 23,40,28,34,30,30,25,26,29,36,34,26,38,38,23,38,18,36,17,32,30,30,38,26,29,35,29,28,28,23,22,21,38,37,29,28,30,17,17,36,31,32,34,27,27,37,35,17,17,28,21,32,40,20,17,26,28,31,19,23,34,23,21,18,18,36,28,17,18,23,18,31,34,34,22,25,19,27,38,26,17,22,32,38,26,34,38,17,28,25,33,32,27,17,29,22,32,17,33,38];
